33 25 36
33 13 5
33 33 -22
34 25 88
34 42 55
34 34 -2
4 43 5
4 4 -4
4 23 19
9 9 -57
9 23 62
10 42 33
10 43 57
10 10 -63
43 43 -18
13 45 11
13 13 -3
45 45 -6
48 48 -53
48 25 63
23 23 -77
25 42 1
25 25 -64
42 42 -84
